\ This file has been generated by DOcplex
\ ENCODING=ISO-8859-1
\Problem name: AMC Quadratic Optimization

Minimize
 obj: x_0 + x_1 + x_2 + x_3 + x_4 + x_5 + x_6 + x_7 + x_8 + x_9 + x_10 + x_11
      + y_0 + y_1 + y_2 + y_3 + y_4 + y_5 + y_6 + y_7 + y_8 + y_9 + y_10 + y_11
      + u_0 + u_1 + [ 2 x_0*y_0 + 2 x_0*y_2 + 2 x_1*y_0 + 2 x_1*y_2 + 2 x_1*y_3
      + 2 x_1*y_6 + 2 x_1*y_9 + 2 x_1*y_10 + 2 x_2*y_5 + 2 x_3*y_0 + 2 x_3*y_2
      + 2 x_3*y_5 + 2 x_3*y_7 + 2 x_3*y_9 + 2 x_4*y_1 + 2 x_4*y_2 + 2 x_4*y_4
      + 2 x_4*y_7 + 2 x_5*y_1 + 2 x_5*y_2 + 2 x_5*y_3 + 2 x_5*y_8 + 2 x_5*y_9
      + 2 x_5*y_10 + 2 x_5*y_11 + 2 x_6*y_0 + 2 x_6*y_1 + 2 x_6*y_5 + 2 x_6*y_6
      + 2 x_6*y_8 + 2 x_7*y_2 + 2 x_7*y_9 + 2 x_8*y_1 + 2 x_8*y_5 + 2 x_9*y_4
      + 2 x_9*y_6 + 2 x_9*y_10 + 2 x_10*y_0 + 2 x_10*y_4 + 2 x_11*y_3
      + 2 x_11*y_11 ]/2
Subject To
 Constraint: 122 x_9 + 76 x_11 + 90 y_7 + 30 y_8 + 82 u_0 + 6 u_1 = 1450

Bounds
 0 <= x_0 <= 1
 0 <= x_1 <= 1
 0 <= x_2 <= 1
 0 <= x_3 <= 1
 0 <= x_4 <= 1
 0 <= x_5 <= 1
 0 <= x_6 <= 1
 0 <= x_7 <= 1
 0 <= x_8 <= 1
 0 <= x_9 <= 1
 0 <= x_10 <= 1
 0 <= x_11 <= 1
 0 <= y_0 <= 1
 0 <= y_1 <= 1
 0 <= y_2 <= 1
 0 <= y_3 <= 1
 0 <= y_4 <= 1
 0 <= y_5 <= 1
 0 <= y_6 <= 1
 0 <= y_7 <= 1
 0 <= y_8 <= 1
 0 <= y_9 <= 1
 0 <= y_10 <= 1
 0 <= y_11 <= 1

Binaries
 x_0 x_1 x_2 x_3 x_4 x_5 x_6 x_7 x_8 x_9 x_10 x_11 y_0 y_1 y_2 y_3 y_4 y_5 y_6
 y_7 y_8 y_9 y_10 y_11
End
